(set-logic QF_S)
(set-option :produce-models true)

(declare-fun s10345 () String)
(declare-fun s10752 () String)
(declare-fun s6421 () String)
(declare-fun s7796 () String)
(declare-fun s11320 () String)
(declare-fun s6755 () String)
(declare-fun s3215 () String)
(declare-fun s2786 () String)
(declare-fun s5013 () String)
(declare-fun s118 () String)
(declare-fun s4971 () String)
(declare-fun s1249 () String)
(declare-fun s11968 () String)
(declare-fun s11287 () String)
(declare-fun s5251 () String)
(declare-fun s7452 () String)
(declare-fun s2492 () String)
(declare-fun s12024 () String)
(declare-fun s9091 () String)
(declare-fun s7418 () String)
(declare-fun s5624 () String)
(declare-fun s8076 () String)
(declare-fun s4256 () String)
(declare-fun s2439 () String)
(declare-fun s2671 () String)
(declare-fun s3056 () String)
(declare-fun s783 () String)
(declare-fun s8732 () String)
(declare-fun s898 () String)
(declare-fun s605 () String)
(declare-fun s7592 () String)
(declare-fun s9037 () String)
(declare-fun s11971 () String)
(declare-fun s7517 () String)
(declare-fun s5326 () String)
(declare-fun s4779 () String)
(declare-fun s9088 () String)
(declare-fun s4549 () String)
(declare-fun s5368 () String)
(declare-fun s4891 () String)
(declare-fun s10574 () String)
(declare-fun s8915 () String)
(declare-fun s901 () String)
(declare-fun s7383 () String)
(declare-fun s8792 () String)
(declare-fun s1085 () String)
(declare-fun s4603 () String)
(declare-fun s11193 () String)
(declare-fun s4324 () String)
(declare-fun s8729 () String)
(declare-fun s1558 () String)
(declare-fun s9314 () String)
(declare-fun s4490 () String)
(declare-fun s6928 () String)
(declare-fun s4493 () String)
(declare-fun s7923 () String)
(declare-fun s5209 () String)
(declare-fun s6985 () String)
(declare-fun s2837 () String)
(declare-fun s5107 () String)
(declare-fun s4453 () String)
(declare-fun s6806 () String)
(declare-fun s12078 () String)
(declare-fun s2722 () String)
(declare-fun s9175 () String)
(declare-fun s1423 () String)
(declare-fun s2602 () String)
(declare-fun s7097 () String)
(declare-fun s10508 () String)
(declare-fun s6862 () String)
(declare-fun s11917 () String)
(declare-fun s4837 () String)
(declare-fun s1291 () String)
(declare-fun s2549 () String)
(declare-fun s2989 () String)
(declare-fun s10455 () String)
(declare-fun s6561 () String)
(declare-fun s7046 () String)
(declare-fun s7256 () String)
(declare-fun s5495 () String)
(declare-fun s3342 () String)
(declare-fun s8968 () String)
(declare-fun s10225 () String)
(declare-fun s6618 () String)
(declare-fun s662 () String)
(declare-fun s2382 () String)
(declare-fun s717 () String)
(declare-fun s12137 () String)
(declare-fun s4722 () String)
(declare-fun s786 () String)
(declare-fun s6486 () String)
(declare-fun s6696 () String)
(declare-fun s11031 () String)
(declare-fun s5530 () String)
(declare-fun s7214 () String)
(declare-fun s3563 () String)
(declare-fun s2936 () String)
(declare-fun s2310 () String)
(declare-fun s2783 () String)
(declare-fun s10398 () String)
(declare-fun s1021 () String)
(declare-fun s8109 () String)
(declare-fun s538 () String)
(declare-fun s5175 () String)
(declare-fun s7634 () String)
(declare-fun s439 () String)
(declare-fun s7475 () String)
(declare-fun s9517 () String)
(declare-fun s1464 () String)
(declare-fun s5681 () String)
(declare-fun s10342 () String)
(declare-fun s7158 () String)
(declare-fun s7161 () String)
(declare-fun s10680 () String)
(declare-fun s4776 () String)
(declare-fun s3377 () String)
(declare-fun s4600 () String)
(declare-fun s11125 () String)
(declare-fun s6752 () String)
(declare-fun s6652 () String)
(declare-fun s10577 () String)
(declare-fun s4656 () String)
(declare-fun s9034 () String)
(declare-fun s6699 () String)
(declare-fun s10511 () String)
(declare-fun s7350 () String)
(declare-fun s10401 () String)
(declare-fun s10288 () String)
(declare-fun s9550 () String)
(declare-fun s5462 () String)
(declare-fun s5716 () String)
(declare-fun s4894 () String)
(declare-fun s541 () String)
(declare-fun s8795 () String)
(declare-fun s7982 () String)
(declare-fun s2605 () String)
(declare-fun s3471 () String)
(declare-fun s6564 () String)
(declare-fun s8912 () String)
(declare-fun s7947 () String)
(declare-fun s11344 () String)
(declare-fun s720 () String)
(declare-fun s10914 () String)
(declare-fun s837 () String)
(declare-fun s9381 () String)
(declare-fun s12027 () String)
(declare-fun s2495 () String)
(declare-fun s4399 () String)
(declare-fun s9228 () String)
(declare-fun s2436 () String)
(declare-fun s4402 () String)
(declare-fun s608 () String)
(declare-fun s3098 () String)
(declare-fun s10291 () String)
(declare-fun s7100 () String)
(declare-fun s6809 () String)
(declare-fun s8858 () String)
(declare-fun s3309 () String)
(declare-fun s4321 () String)
(declare-fun s9423 () String)
(declare-fun s659 () String)
(declare-fun s4840 () String)
(declare-fun s8971 () String)
(declare-fun s9585 () String)
(declare-fun s7761 () String)
(declare-fun s10677 () String)
(declare-fun s1182 () String)
(declare-fun s2668 () String)
(declare-fun s4456 () String)
(declare-fun s7728 () String)
(declare-fun s11920 () String)
(declare-fun s10628 () String)
(declare-fun s10631 () String)
(declare-fun s4546 () String)
(declare-fun s7890 () String)
(declare-fun s6982 () String)
(declare-fun s10228 () String)
(declare-fun s3528 () String)
(declare-fun s12134 () String)
(declare-fun s6615 () String)
(declare-fun s2307 () String)
(declare-fun s6418 () String)
(declare-fun s7043 () String)
(declare-fun s6655 () String)
(declare-fun s10989 () String)
(declare-fun s6865 () String)
(declare-fun s1387 () String)
(declare-fun s442 () String)
(declare-fun s4725 () String)
(declare-fun s12081 () String)
(declare-fun s10452 () String)
(declare-fun s6931 () String)
(declare-fun s8861 () String)
(declare-fun s2840 () String)
(declare-fun s10872 () String)
(declare-fun s6483 () String)
(declare-fun s840 () String)
(declare-fun s4259 () String)
(declare-fun s3504 () String)
(declare-fun s4659 () String)
(declare-fun s2725 () String)
(declare-fun s2385 () String)
(declare-fun s5140 () String)
(declare-fun s5657 () String)
(declare-fun s11158 () String)
(declare-fun s3173 () String)
(declare-fun s10805 () String)
(declare-fun s2546 () String)

(assert (= s118 s12081 ))
(assert (not (= s3309 s118 )))
(assert (= s901 s898 ))
(assert (not (= s11031 s118 )))
(assert (= s10401 s10398 ))
(assert (= s8971 s8968 ))
(assert (= s12081 s12078 ))
(assert (= s118 s6809 ))
(assert (= s6618 s6615 ))
(assert (not (= s118 s6486 )))
(assert (not (= s5716 s118 )))
(assert (= s118 s10455 ))
(assert (= s4894 s4891 ))
(assert (= s6865 s6862 ))
(assert (not (= s118 s7046 )))
(assert (not (= s118 s2725 )))
(assert (= s6421 s6418 ))
(assert (not (= s118 s7100 )))
(assert (not (= s5013 s118 )))
(assert (not (= s118 s6931 )))
(assert (not (= s10914 s118 )))
(assert (= s4603 s4600 ))
(assert (= s8795 s8792 ))
(assert (= s4324 s4321 ))
(assert (not (= s118 s4725 )))
(assert (not (= s118 s6865 )))
(assert (= s2786 s2783 ))
(assert (= s118 s10345 ))
(assert (= s2840 s2837 ))
(assert (= s7046 s7043 ))
(assert (not (= s1182 s118 )))
(assert (= s7475 s118 ))
(assert (= s840 s837 ))
(assert (= s118 s6421 ))
(assert (not (= s118 s6985 )))
(assert (= s4549 s4546 ))
(assert (= s7161 s7158 ))
(assert (not (= s7947 s118 )))
(assert (= s118 "(" ))
(assert (not (= s118 s2385 )))
(assert (not (= s118 s10680 )))
(assert (= s720 s717 ))
(assert (= s608 s605 ))
(assert (= s6755 s6752 ))
(assert (not (= s11320 s118 )))
(assert (= s2605 s2602 ))
(assert (not (= s3471 s118 )))
(assert (= s118 s2549 ))
(assert (not (= s10752 s118 )))
(assert (not (= s118 s2605 )))
(assert (= s8861 s8858 ))
(assert (not (= s118 s8971 )))
(assert (= s2495 s2492 ))
(assert (= s118 s6655 ))
(assert (= s4493 s4490 ))
(assert (not (= s118 s608 )))
(assert (not (= s118 s10228 )))
(assert (= s10511 s10508 ))
(assert (= s118 s8915 ))
(assert (not (= s11193 s118 )))
(assert (not (= s118 s8795 )))
(assert (= s4725 s4722 ))
(assert (= s7592 s118 ))
(assert (= s5326 s118 ))
(assert (= s3173 s118 ))
(assert (not (= s7728 s118 )))
(assert (not (= s118 s12137 )))
(assert (= s6655 s6652 ))
(assert (not (= s118 s11920 )))
(assert (not (= s7890 s118 )))
(assert (not (= s9423 s118 )))
(assert (= s9381 s118 ))
(assert (= s2310 s2307 ))
(assert (not (= s5624 s118 )))
(assert (not (= s118 s4894 )))
(assert (not (= s118 s10631 )))
(assert (not (= s118 s6564 )))
(assert (= s10631 s10628 ))
(assert (not (= s3563 s118 )))
(assert (= s6985 s6982 ))
(assert (= s118 s662 ))
(assert (= s10228 s10225 ))
(assert (not (= s118 s4659 )))
(assert (not (= s1464 s118 )))
(assert (= s8915 s8912 ))
(assert (not (= s7350 s118 )))
(assert (not (= s3528 s118 )))
(assert (not (= s118 s12027 )))
(assert (not (= s9550 s118 )))
(assert (not (= s5175 s118 )))
(assert (= s6699 s6696 ))
(assert (not (= s7982 s118 )))
(assert (not (= s9585 s118 )))
(assert (not (= s1423 s118 )))
(assert (= s2549 s2546 ))
(assert (not (= s118 s541 )))
(assert (not (= s9175 s118 )))
(assert (= s118 s11971 ))
(assert (not (= s5140 s118 )))
(assert (not (= s5107 s118 )))
(assert (= s6809 s6806 ))
(assert (not (= s118 s4549 )))
(assert (not (= s2989 s118 )))
(assert (= s11971 s11968 ))
(assert (not (= s118 s4840 )))
(assert (not (= s5462 s118 )))
(assert (not (= s118 s2786 )))
(assert (= s662 s659 ))
(assert (= s10989 s118 ))
(assert (= s6564 s6561 ))
(assert (= s10680 s10677 ))
(assert (not (= s7796 s118 )))
(assert (not (= s5251 s118 )))
(assert (not (= s3098 s118 )))
(assert (= s4840 s4837 ))
(assert (not (= s118 s720 )))
(assert (not (= s3215 s118 )))
(assert (= s118 s4259 ))
(assert (= s4779 s4776 ))
(assert (not (= s7256 s118 )))
(assert (= s4456 s4453 ))
(assert (= s11920 s11917 ))
(assert (= s118 s6699 ))
(assert (= s442 s439 ))
(assert (= s2725 s2722 ))
(assert (not (= s118 s6755 )))
(assert (not (= s2936 s118 )))
(assert (not (= s118 s2840 )))
(assert (not (= s3504 s118 )))
(assert (= s8732 s8729 ))
(assert (= s7214 s118 ))
(assert (= s10345 s10342 ))
(assert (not (= s118 s10291 )))
(assert (not (= s11158 s118 )))
(assert (= s10872 s118 ))
(assert (not (= s118 s786 )))
(assert (= s10455 s10452 ))
(assert (not (= s118 s442 )))
(assert (not (= s5681 s118 )))
(assert (= s118 s2439 ))
(assert (= s4259 s4256 ))
(assert (= s118 s4603 ))
(assert (= s10291 s10288 ))
(assert (not (= s118 s4324 )))
(assert (not (= s11125 s118 )))
(assert (= s2439 s2436 ))
(assert (not (= s118 s8732 )))
(assert (= s1249 s118 ))
(assert (not (= s5495 s118 )))
(assert (= s9037 s9034 ))
(assert (not (= s1085 s118 )))
(assert (not (= s118 s9091 )))
(assert (not (= s10805 s118 )))
(assert (not (= s7418 s118 )))
(assert (not (= s118 s2671 )))
(assert (not (= s7923 s118 )))
(assert (not (= s118 s6618 )))
(assert (not (= s1387 s118 )))
(assert (= s541 s538 ))
(assert (not (= s118 s10511 )))
(assert (not (= s118 s2310 )))
(assert (not (= s7517 s118 )))
(assert (not (= s1291 s118 )))
(assert (not (= s5530 s118 )))
(assert (not (= s7634 s118 )))
(assert (not (= s118 s2495 )))
(assert (not (= s118 s4779 )))
(assert (not (= s118 s901 )))
(assert (not (= s11344 s118 )))
(assert (not (= s3377 s118 )))
(assert (= s4971 s118 ))
(assert (not (= s8076 s118 )))
(assert (= s10577 s10574 ))
(assert (not (= s5368 s118 )))
(assert (not (= s118 s10577 )))
(assert (= s12027 s12024 ))
(assert (= s7452 s118 ))
(assert (not (= s9517 s118 )))
(assert (= s6486 s6483 ))
(assert (= s12137 s12134 ))
(assert (= s5209 s118 ))
(assert (not (= s118 s840 )))
(assert (not (= s118 s7161 )))
(assert (= s2385 s2382 ))
(assert (not (= s5657 s118 )))
(assert (= s7100 s7097 ))
(assert (not (= s11287 s118 )))
(assert (= s9091 s9088 ))
(assert (= s2671 s2668 ))
(assert (not (= s9228 s118 )))
(assert (not (= s118 s4456 )))
(assert (not (= s8109 s118 )))
(assert (not (= s7761 s118 )))
(assert (not (= s9314 s118 )))
(assert (not (= s1558 s118 )))
(assert (= s118 s4493 ))
(assert (not (= s7383 s118 )))
(assert (not (= s3342 s118 )))
(assert (not (= s118 s9037 )))
(assert (= s4659 s4656 ))
(assert (= s4402 s4399 ))
(assert (= s6931 s6928 ))
(assert (not (= s1021 s118 )))
(assert (= s786 s783 ))
(assert (not (= s118 s8861 )))
(assert (not (= s118 s4402 )))
(assert (= s3056 s118 ))
(assert (not (= s118 s10401 )))


(check-sat)
(get-model)
